
  32    4
  10   10   10   10

   0   0   0   0   0   1 2 
   8   1   1   1   0   1 3 
   8   4   0   5   1   1 4 
   5   0   6   4   2   1 5 
   5   6   3   3   0   1 6 
   1   3   3   3   0   1 7 
   6   0   6   4   3   1 8 
  10   2   6   2   0   1 9 
   1   2   7   0   6   1 10 
   8   6   3   4   0   1 11 
   2   7   4   0   3   1 12 
   8   5   0   4   5   1 13 
   3   2   3   3   0   1 14 
   4   0   3   7   4   2 31 15 
   3   9   5   6   0   2 30 16 
   3   6   0   4   5   1 17 
   3   0   7   3   2   1 18 
   8   4   5   0   8   1 19 
   4   2   5   5   0   1 20 
   2   3   0   5   1   1 21 
   2   5   6   0   3   1 22 
   7   1   0   3   9   1 23 
   3   0   2   8   6   2 29 24 
   5   3   5   3   0   1 25 
   4   3   4   0   6   1 26 
   2   4   0   2   2   1 27 
  10   0   1   6   5   1 28 
  10   2   1   0   3   1 32
   4   9   4   0   2   1 32
   1   0   2   5   5   1 32
   8   3   0   2   3   1 32
   0   0   0   0   0   0 
